qbf_easy_train/easy_4760_SAT.qdimacs
p cnf 35 102
a 27 28 12 0
e 1 2 3 4 5 6 7 8 9 10 11 13 14 15 16 17 18 19 20 21 22 23 24 25 26 29 30 31 32 33 34 35 0
4 2 0
4 -3 0
-2 3 -4 0
5 1 0
5 4 0
-1 -4 -5 0
-7 1 0
-7 -6 0
-1 6 7 0
-8 -7 0
-8 -1 0
7 1 8 0
9 2 0
9 -1 0
-2 1 -9 0
10 -8 0
10 -9 0
8 9 -10 0
6 2 -11 0
-6 -2 -11 0
6 -2 11 0
-6 2 11 0
-4 11 -12 0
4 -11 -12 0
-4 -11 12 0
4 11 12 0
-14 -12 0
-14 13 0
12 -13 14 0
4 -14 -15 0
-4 14 -15 0
4 14 15 0
-4 -14 15 0
-10 -15 -16 0
10 15 -16 0
-10 15 16 0
10 -15 16 0
17 18 -19 0
-17 -18 -19 0
17 -18 19 0
-17 18 19 0
2 -19 -20 0
-2 19 -20 0
2 19 20 0
-2 -19 20 0
-21 7 0
-21 -9 0
-7 9 21 0
22 -7 0
22 21 0
7 -21 -22 0
23 20 0
23 -22 0
-20 22 -23 0
24 16 0
24 -23 0
-16 23 -24 0
5 -24 -25 0
-5 24 -25 0
5 24 25 0
-5 -24 25 0
26 1 0
26 18 0
-1 -18 -26 0
9 13 -27 0
-9 -13 -27 0
9 -13 27 0
-9 13 27 0
7 28 -29 0
-7 -28 -29 0
7 -28 29 0
-7 28 29 0
-30 27 0
-30 -29 0
-27 29 30 0
-1 -2 -31 0
1 2 -31 0
-1 2 31 0
1 -2 31 0
32 31 0
32 -1 0
-31 1 -32 0
33 -30 0
33 -32 0
30 32 -33 0
-26 33 -34 0
26 -33 -34 0
-26 -33 34 0
26 33 34 0
35 25 0
35 34 0
-25 -34 -35 0
-8 34 -28 -31 -17 0
11 -32 3 -35 0
-23 -8 29 5 -19 0
2 -35 11 -18 5 -20 0
-13 20 -31 0
22 20 -12 -33 21 -11 -2 0
34 13 -3 -17 -20 0
18 -14 12 15 -1 16 -2 0
-25 2 -11 -17 -31 0
35 0
