sat_easy_train/easy_4760_SAT.dimacs
p cnf 98 330
-1 2 -3 0
1 -2 -3 0
-1 -2 3 0
1 2 3 0
6 -4 0
6 5 0
4 -5 -6 0
-9 7 0
-9 -8 0
-7 8 9 0
-10 -9 0
-10 -6 0
9 6 10 0
13 2 0
13 -12 0
-2 12 -13 0
-11 13 -14 0
11 -13 -14 0
-11 -13 14 0
11 13 14 0
-10 -14 -15 0
10 14 -15 0
-10 14 15 0
10 -14 15 0
6 -15 -16 0
-6 15 -16 0
6 15 16 0
-6 -15 16 0
-3 16 -17 0
3 -16 -17 0
-3 -16 17 0
3 16 17 0
-18 13 -19 0
18 -13 -19 0
-18 -13 19 0
18 13 19 0
-20 -4 0
-20 -19 0
4 19 20 0
17 -20 -21 0
-17 20 -21 0
17 20 21 0
-17 -20 21 0
-23 18 -24 0
23 -18 -24 0
-23 -18 24 0
23 18 24 0
25 -6 0
25 12 0
6 -12 -25 0
-26 -13 0
-26 -5 0
13 5 26 0
-9 -26 -27 0
9 26 -27 0
-9 26 27 0
9 -26 27 0
28 25 0
28 -27 0
-25 27 -28 0
-29 -28 0
-29 7 0
28 -7 29 0
-30 -24 0
-30 29 0
24 -29 30 0
-22 30 -31 0
22 -30 -31 0
-22 -30 31 0
22 30 31 0
-33 -18 0
-33 32 0
18 -32 33 0
-31 33 -34 0
31 -33 -34 0
-31 -33 34 0
31 33 34 0
2 10 -36 0
-2 -10 -36 0
2 -10 36 0
-2 10 36 0
-38 -8 0
-38 -37 0
8 37 38 0
-39 -36 0
-39 -38 0
36 38 39 0
35 39 -40 0
-35 -39 -40 0
35 -39 40 0
-35 39 40 0
41 34 0
41 40 0
-34 -40 -41 0
25 -23 -42 0
-25 23 -42 0
25 23 42 0
-25 -23 42 0
41 42 -43 0
-41 -42 -43 0
41 -42 43 0
-41 42 43 0
-44 -26 0
-44 22 0
26 -22 44 0
-46 -29 0
-46 -45 0
29 45 46 0
47 -2 0
47 38 0
2 -38 -47 0
24 -45 -48 0
-24 45 -48 0
24 45 48 0
-24 -45 48 0
-49 -47 0
-49 -48 0
47 48 49 0
-50 -49 0
-50 38 0
49 -38 50 0
51 -9 0
51 -50 0
9 50 -51 0
-46 -51 -52 0
46 51 -52 0
-46 51 52 0
46 -51 52 0
-53 7 0
-53 -47 0
-7 47 53 0
54 -52 0
54 53 0
52 -53 -54 0
-10 -25 -55 0
10 25 -55 0
-10 25 55 0
10 -25 55 0
-56 54 0
-56 -55 0
-54 55 56 0
-37 8 -57 0
37 -8 -57 0
-37 -8 57 0
37 8 57 0
-5 -48 -58 0
5 48 -58 0
-5 48 58 0
5 -48 58 0
-59 -5 -60 0
59 5 -60 0
-59 5 60 0
59 -5 60 0
61 -37 0
61 29 0
37 -29 -61 0
60 61 -62 0
-60 -61 -62 0
60 -61 62 0
-60 61 62 0
37 -13 -63 0
-37 13 -63 0
37 13 63 0
-37 -13 63 0
64 -63 0
64 -47 0
63 47 -64 0
13 7 -65 0
-13 -7 -65 0
13 -7 65 0
-13 7 65 0
66 -5 0
66 -14 0
5 14 -66 0
66 -24 -67 0
-66 24 -67 0
66 24 67 0
-66 -24 67 0
-65 67 -68 0
65 -67 -68 0
-65 -67 68 0
65 67 68 0
-64 68 -69 0
64 -68 -69 0
-64 -68 69 0
64 68 69 0
62 69 -70 0
-62 -69 -70 0
62 -69 70 0
-62 69 70 0
-58 70 -71 0
58 -70 -71 0
-58 -70 71 0
58 70 71 0
57 71 -72 0
-57 -71 -72 0
57 -71 72 0
-57 71 72 0
73 -56 0
73 72 0
56 -72 -73 0
74 -5 0
74 5 0
37 -9 -75 0
-37 9 -75 0
37 9 75 0
-37 -9 75 0
74 -75 -76 0
-74 75 -76 0
74 75 76 0
-74 -75 76 0
-1 -18 -77 0
1 18 -77 0
-1 18 77 0
1 -18 77 0
78 77 0
78 38 0
-77 -38 -78 0
-79 -23 0
-79 24 0
23 -24 79 0
-80 30 0
-80 15 0
-30 -15 80 0
-15 -80 -81 0
15 80 -81 0
-15 80 81 0
15 -80 81 0
-82 -79 0
-82 -81 0
79 81 82 0
-78 82 -83 0
78 -82 -83 0
-78 -82 83 0
78 82 83 0
-84 -76 0
-84 83 0
76 -83 84 0
85 -73 0
85 84 0
73 -84 -85 0
-44 85 -86 0
44 -85 -86 0
-44 -85 86 0
44 85 86 0
-87 -32 0
-87 28 0
32 -28 87 0
88 87 0
88 11 0
-87 -11 -88 0
89 -29 0
89 -32 0
29 32 -89 0
88 89 -90 0
-88 -89 -90 0
88 -89 90 0
-88 89 90 0
22 -47 -91 0
-22 47 -91 0
22 47 91 0
-22 -47 91 0
92 91 0
92 18 0
-91 -18 -92 0
-16 77 -93 0
16 -77 -93 0
-16 -77 93 0
16 77 93 0
-94 92 0
-94 -93 0
-92 93 94 0
-90 94 -95 0
90 -94 -95 0
-90 -94 95 0
90 94 95 0
86 -95 -96 0
-86 95 -96 0
86 95 96 0
-86 -95 96 0
-97 43 0
-97 96 0
-43 -96 97 0
-98 21 0
-98 -97 0
-21 97 98 0
66 -12 74 36 26 0
-16 -90 -13 0
-92 -94 29 -44 0
89 4 -3 16 0
74 -86 25 0
-28 -13 64 0
24 -16 0
63 -42 0
-13 67 70 58 -6 -74 0
53 69 -34 59 0
-98 -42 -37 76 -51 3 0
41 -78 0
23 82 -4 -11 -49 25 0
-85 -74 -7 31 -2 -47 0
-40 35 11 62 31 0
-35 -49 0
-92 12 8 64 0
-43 -7 -98 0
-91 30 0
76 59 94 -14 97 48 0
25 -85 0
48 18 0
-73 -88 0
-9 79 0
-89 -96 -50 0
-22 -52 -66 -25 0
-47 72 92 -60 64 16 0
-80 -96 91 26 77 -28 0
-24 -40 -91 0
-25 -70 32 -18 93 0
41 5 -7 0
-75 40 64 0
37 -4 86 70 -36 0
-92 77 76 -23 0
42 19 10 0
47 -82 -91 32 80 0
-12 -57 52 0
51 19 86 0
-56 -58 -2 -47 80 0
-38 2 -61 27 0
31 34 -41 -38 79 0
88 59 -18 -55 21 -20 0
97 -69 0
98 0
